\* Problem: SC205 *\

Minimize
 COST: - C0000003

Subject To
 R0000000: + 2 C0000000 + C0000001 + 1.5 C0000002 <= 200
 R0000001: + C0000000 + 2 C0000001 + 1.5 C0000002 <= 100
 R0000002: 0 C0000000 <= 0
 R0000003: + C0000003 - C0000004 = 0
 R0000004: - C0000000 + C0000005 = 0
 R0000005: - C0000001 + C0000006 = 0
 R0000006: - C0000002 + C0000007 = 0
 R0000007: - C0000005 + C0000008 <= 0
 R0000008: - C0000006 + C0000009 <= 0
 R0000009: - C0000007 + C0000010 <= 0
 R0000010: - C0000008 + 2 C0000011 + C0000012 + 1.5 C0000013 <= 200
 R0000011: - C0000009 + C0000011 + 2 C0000012 + 1.5 C0000013 <= 100
 R0000012: + C0000004 - C0000010 <= 0
 R0000013: + 1.1 C0000003 - C0000014 = 0
 R0000014: + C0000004 + C0000014 - C0000015 = 0
 R0000015: - C0000005 - C0000011 + C0000016 = 0
 R0000016: - C0000006 - C0000012 + C0000017 = 0
 R0000017: - C0000007 - C0000013 + C0000018 = 0
 R0000018: - C0000016 + C0000019 <= 0
 R0000019: - C0000017 + C0000020 <= 0
 R0000020: - C0000018 + C0000021 <= 0
 R0000021: - C0000019 + 2 C0000022 + C0000023 + 1.5 C0000024 <= 175
 R0000022: - C0000020 + C0000022 + 2 C0000023 + 1.5 C0000024 <= 75
 R0000023: + C0000015 - C0000021 <= 0
 R0000024: + 1.1 C0000014 - C0000025 <= 0
 R0000025: + C0000015 + C0000025 - C0000026 <= 0
 R0000026: - C0000016 - C0000022 + C0000027 <= 0
 R0000027: - C0000017 - C0000023 + C0000028 <= 0
 R0000028: - C0000018 - C0000024 + C0000029 <= 0
 R0000029: - C0000027 + C0000030 <= 0
 R0000030: - C0000028 + C0000031 <= 0
 R0000031: - C0000029 + C0000032 <= 0
 R0000032: - C0000030 + 2 C0000033 + C0000034 + 1.5 C0000035 <= 200
 R0000033: - C0000031 + C0000033 + 2 C0000034 + 1.5 C0000035 <= 100
 R0000034: + C0000026 - C0000032 <= 0
 R0000035: + 1.1 C0000003 - C0000036 = 0
 R0000036: + C0000004 + C0000036 - C0000037 = 0
 R0000037: - C0000005 - C0000011 + C0000038 = 0
 R0000038: - C0000006 - C0000012 + C0000039 = 0
 R0000039: - C0000007 - C0000013 + C0000040 = 0
 R0000040: - C0000038 + C0000041 <= 0
 R0000041: - C0000039 + C0000042 <= 0
 R0000042: - C0000040 + C0000043 <= 0
 R0000043: - C0000041 + 2 C0000044 + C0000045 + 1.5 C0000046 <= 175
 R0000044: - C0000042 + C0000044 + 2 C0000045 + 1.5 C0000046 <= 83.33
 R0000045: + C0000037 - C0000043 <= 0
 R0000046: + 1.1 C0000036 - C0000047 <= 0
 R0000047: + C0000037 + C0000047 - C0000048 <= 0
 R0000048: - C0000038 - C0000044 + C0000049 <= 0
 R0000049: - C0000039 - C0000045 + C0000050 <= 0
 R0000050: - C0000040 - C0000046 + C0000051 <= 0
 R0000051: - C0000049 + C0000052 <= 0
 R0000052: - C0000050 + C0000053 <= 0
 R0000053: - C0000051 + C0000054 <= 0
 R0000054: - C0000052 + 2 C0000055 + C0000056 + 1.5 C0000057 <= 200
 R0000055: - C0000053 + C0000055 + 2 C0000056 + 1.5 C0000057 <= 100
 R0000056: + C0000048 - C0000054 <= 0
 R0000057: + 1.1 C0000003 - C0000058 = 0
 R0000058: + C0000004 + C0000058 - C0000059 = 0
 R0000059: - C0000005 - C0000011 + C0000060 = 0
 R0000060: - C0000006 - C0000012 + C0000061 = 0
 R0000061: - C0000007 - C0000013 + C0000062 = 0
 R0000062: - C0000060 + C0000063 <= 0
 R0000063: - C0000061 + C0000064 <= 0
 R0000064: - C0000062 + C0000065 <= 0
 R0000065: - C0000063 + 2 C0000066 + C0000067 + 1.5 C0000068 <= 175
 R0000066: - C0000064 + C0000066 + 2 C0000067 + 1.5 C0000068 <= 91.67
 R0000067: + C0000059 - C0000065 <= 0
 R0000068: + 1.1 C0000058 - C0000069 <= 0
 R0000069: + C0000059 + C0000069 - C0000070 <= 0
 R0000070: - C0000060 - C0000066 + C0000071 <= 0
 R0000071: - C0000061 - C0000067 + C0000072 <= 0
 R0000072: - C0000062 - C0000068 + C0000073 <= 0
 R0000073: - C0000071 + C0000074 <= 0
 R0000074: - C0000072 + C0000075 <= 0
 R0000075: - C0000073 + C0000076 <= 0
 R0000076: - C0000074 + 2 C0000077 + C0000078 + 1.5 C0000079 <= 200
 R0000077: - C0000075 + C0000077 + 2 C0000078 + 1.5 C0000079 <= 100
 R0000078: + C0000070 - C0000076 <= 0
 R0000079: + 1.1 C0000003 - C0000080 = 0
 R0000080: + C0000004 + C0000080 - C0000081 = 0
 R0000081: - C0000005 - C0000011 + C0000082 = 0
 R0000082: - C0000006 - C0000012 + C0000083 = 0
 R0000083: - C0000007 - C0000013 + C0000084 = 0
 R0000084: - C0000082 + C0000085 <= 0
 R0000085: - C0000083 + C0000086 <= 0
 R0000086: - C0000084 + C0000087 <= 0
 R0000087: - C0000085 + 2 C0000088 + C0000089 + 1.5 C0000090 <= 175
 R0000088: - C0000086 + C0000088 + 2 C0000089 + 1.5 C0000090 <= 100
 R0000089: + C0000081 - C0000087 <= 0
 R0000090: + 1.1 C0000080 - C0000091 <= 0
 R0000091: + C0000081 + C0000091 - C0000092 <= 0
 R0000092: - C0000082 - C0000088 + C0000093 <= 0
 R0000093: - C0000083 - C0000089 + C0000094 <= 0
 R0000094: - C0000084 - C0000090 + C0000095 <= 0
 R0000095: - C0000093 + C0000096 <= 0
 R0000096: - C0000094 + C0000097 <= 0
 R0000097: - C0000095 + C0000098 <= 0
 R0000098: - C0000096 + 2 C0000099 + C0000100 + 1.5 C0000101 <= 200
 R0000099: - C0000097 + C0000099 + 2 C0000100 + 1.5 C0000101 <= 100
 R0000100: + C0000092 - C0000098 <= 0
 R0000101: + 1.1 C0000003 - C0000102 = 0
 R0000102: + C0000004 + C0000102 - C0000103 = 0
 R0000103: - C0000005 - C0000011 + C0000104 = 0
 R0000104: - C0000006 - C0000012 + C0000105 = 0
 R0000105: - C0000007 - C0000013 + C0000106 = 0
 R0000106: - C0000104 + C0000107 <= 0
 R0000107: - C0000105 + C0000108 <= 0
 R0000108: - C0000106 + C0000109 <= 0
 R0000109: - C0000107 + 2 C0000110 + C0000111 + 1.5 C0000112 <= 183.33
 R0000110: - C0000108 + C0000110 + 2 C0000111 + 1.5 C0000112 <= 75
 R0000111: + C0000103 - C0000109 <= 0
 R0000112: + 1.1 C0000102 - C0000113 <= 0
 R0000113: + C0000103 + C0000113 - C0000114 <= 0
 R0000114: - C0000104 - C0000110 + C0000115 <= 0
 R0000115: - C0000105 - C0000111 + C0000116 <= 0
 R0000116: - C0000106 - C0000112 + C0000117 <= 0
 R0000117: - C0000115 + C0000118 <= 0
 R0000118: - C0000116 + C0000119 <= 0
 R0000119: - C0000117 + C0000120 <= 0
 R0000120: - C0000118 + 2 C0000121 + C0000122 + 1.5 C0000123 <= 200
 R0000121: - C0000119 + C0000121 + 2 C0000122 + 1.5 C0000123 <= 100
 R0000122: + C0000114 - C0000120 <= 0
 R0000123: + 1.1 C0000003 - C0000124 = 0
 R0000124: + C0000004 + C0000124 - C0000125 = 0
 R0000125: - C0000005 - C0000011 + C0000126 = 0
 R0000126: - C0000006 - C0000012 + C0000127 = 0
 R0000127: - C0000007 - C0000013 + C0000128 = 0
 R0000128: - C0000126 + C0000129 <= 0
 R0000129: - C0000127 + C0000130 <= 0
 R0000130: - C0000128 + C0000131 <= 0
 R0000131: - C0000129 + 2 C0000132 + C0000133 + 1.5 C0000134 <= 183.33
 R0000132: - C0000130 + C0000132 + 2 C0000133 + 1.5 C0000134 <= 83.33
 R0000133: + C0000125 - C0000131 <= 0
 R0000134: + 1.1 C0000124 - C0000135 <= 0
 R0000135: + C0000125 + C0000135 - C0000136 <= 0
 R0000136: - C0000126 - C0000132 + C0000137 <= 0
 R0000137: - C0000127 - C0000133 + C0000138 <= 0
 R0000138: - C0000128 - C0000134 + C0000139 <= 0
 R0000139: - C0000137 + C0000140 <= 0
 R0000140: - C0000138 + C0000141 <= 0
 R0000141: - C0000139 + C0000142 <= 0
 R0000142: - C0000140 + 2 C0000143 + C0000144 + 1.5 C0000145 <= 200
 R0000143: - C0000141 + C0000143 + 2 C0000144 + 1.5 C0000145 <= 100
 R0000144: + C0000136 - C0000142 <= 0
 R0000145: + 1.1 C0000003 - C0000146 = 0
 R0000146: + C0000004 + C0000146 - C0000147 = 0
 R0000147: - C0000005 - C0000011 + C0000148 = 0
 R0000148: - C0000006 - C0000012 + C0000149 = 0
 R0000149: - C0000007 - C0000013 + C0000150 = 0
 R0000150: - C0000148 + C0000151 <= 0
 R0000151: - C0000149 + C0000152 <= 0
 R0000152: - C0000150 + C0000153 <= 0
 R0000153: - C0000151 + 2 C0000154 + C0000155 + 1.5 C0000156 <= 183.33
 R0000154: - C0000152 + C0000154 + 2 C0000155 + 1.5 C0000156 <= 91.67
 R0000155: + C0000147 - C0000153 <= 0
 R0000156: + 1.1 C0000146 - C0000157 <= 0
 R0000157: + C0000147 + C0000157 - C0000158 <= 0
 R0000158: - C0000148 - C0000154 + C0000159 <= 0
 R0000159: - C0000149 - C0000155 + C0000160 <= 0
 R0000160: - C0000150 - C0000156 + C0000161 <= 0
 R0000161: - C0000159 + C0000162 <= 0
 R0000162: - C0000160 + C0000163 <= 0
 R0000163: - C0000161 + C0000164 <= 0
 R0000164: - C0000162 + 2 C0000165 + C0000166 + 1.5 C0000167 <= 200
 R0000165: - C0000163 + C0000165 + 2 C0000166 + 1.5 C0000167 <= 100
 R0000166: + C0000158 - C0000164 <= 0
 R0000167: + 1.1 C0000003 - C0000168 = 0
 R0000168: + C0000004 + C0000168 - C0000169 = 0
 R0000169: - C0000005 - C0000011 + C0000170 = 0
 R0000170: - C0000006 - C0000012 + C0000171 = 0
 R0000171: - C0000007 - C0000013 + C0000172 = 0
 R0000172: - C0000170 + C0000173 <= 0
 R0000173: - C0000171 + C0000174 <= 0
 R0000174: - C0000172 + C0000175 <= 0
 R0000175: - C0000173 + 2 C0000176 + C0000177 + 1.5 C0000178 <= 183.33
 R0000176: - C0000174 + C0000176 + 2 C0000177 + 1.5 C0000178 <= 100
 R0000177: + C0000169 - C0000175 <= 0
 R0000178: + 1.1 C0000168 - C0000179 <= 0
 R0000179: + C0000169 + C0000179 - C0000180 <= 0
 R0000180: - C0000170 - C0000176 + C0000181 <= 0
 R0000181: - C0000171 - C0000177 + C0000182 <= 0
 R0000182: - C0000172 - C0000178 + C0000183 <= 0
 R0000183: - C0000181 + C0000184 <= 0
 R0000184: - C0000182 + C0000185 <= 0
 R0000185: - C0000183 + C0000186 <= 0
 R0000186: - C0000184 + 2 C0000187 + C0000188 + 1.5 C0000189 <= 200
 R0000187: - C0000185 + C0000187 + 2 C0000188 + 1.5 C0000189 <= 100
 R0000188: + C0000180 - C0000186 <= 0
 R0000189: + 1.1 C0000003 - C0000190 = 0
 R0000190: + C0000004 + C0000190 - C0000191 = 0
 R0000191: - C0000005 - C0000011 + C0000192 = 0
 R0000192: - C0000006 - C0000012 + C0000193 = 0
 R0000193: - C0000007 - C0000013 + C0000194 = 0
 R0000194: - C0000192 + C0000195 <= 0
 R0000195: - C0000193 + C0000196 <= 0
 R0000196: - C0000194 + C0000197 <= 0
 R0000197: - C0000195 + 2 C0000198 + C0000199 + 1.5 C0000200 <= 191.67
 R0000198: - C0000196 + C0000198 + 2 C0000199 + 1.5 C0000200 <= 75
 R0000199: + C0000191 - C0000197 <= 0
 R0000200: + 1.1 C0000190 - C0000201 <= 0
 R0000201: + C0000191 + C0000201 - C0000202 <= 0
 R0000202: - C0000192 - C0000198 + C0000203 <= 0
 R0000203: - C0000193 - C0000199 + C0000204 <= 0
 R0000204: - C0000194 - C0000200 + C0000205 <= 0
 R0000205: - C0000203 + C0000206 <= 0
 R0000206: - C0000204 + C0000207 <= 0
 R0000207: - C0000205 + C0000208 <= 0
 R0000208: - C0000206 + 2 C0000209 + C0000210 + 1.5 C0000211 <= 200
 R0000209: - C0000207 + C0000209 + 2 C0000210 + 1.5 C0000211 <= 100
 R0000210: + C0000202 - C0000208 <= 0
 R0000211: + 1.1 C0000003 - C0000212 = 0
 R0000212: + C0000004 + C0000212 - C0000213 = 0
 R0000213: - C0000005 - C0000011 + C0000214 = 0
 R0000214: - C0000006 - C0000012 + C0000215 = 0
 R0000215: - C0000007 - C0000013 + C0000216 = 0
 R0000216: - C0000214 + C0000217 <= 0
 R0000217: - C0000215 + C0000218 <= 0
 R0000218: - C0000216 + C0000219 <= 0
 R0000219: - C0000217 + 2 C0000220 + C0000221 + 1.5 C0000222 <= 191.67
 R0000220: - C0000218 + C0000220 + 2 C0000221 + 1.5 C0000222 <= 83.33
 R0000221: + C0000213 - C0000219 <= 0
 R0000222: + 1.1 C0000212 - C0000223 <= 0
 R0000223: + C0000213 + C0000223 - C0000224 <= 0
 R0000224: - C0000214 - C0000220 + C0000225 <= 0
 R0000225: - C0000215 - C0000221 + C0000226 <= 0
 R0000226: - C0000216 - C0000222 + C0000227 <= 0
 R0000227: - C0000225 + C0000228 <= 0
 R0000228: - C0000226 + C0000229 <= 0
 R0000229: - C0000227 + C0000230 <= 0
 R0000230: - C0000228 + 2 C0000231 + C0000232 + 1.5 C0000233 <= 200
 R0000231: - C0000229 + C0000231 + 2 C0000232 + 1.5 C0000233 <= 100
 R0000232: + C0000224 - C0000230 <= 0
 R0000233: + 1.1 C0000003 - C0000234 = 0
 R0000234: + C0000004 + C0000234 - C0000235 = 0
 R0000235: - C0000005 - C0000011 + C0000236 = 0
 R0000236: - C0000006 - C0000012 + C0000237 = 0
 R0000237: - C0000007 - C0000013 + C0000238 = 0
 R0000238: - C0000236 + C0000239 <= 0
 R0000239: - C0000237 + C0000240 <= 0
 R0000240: - C0000238 + C0000241 <= 0
 R0000241: - C0000239 + 2 C0000242 + C0000243 + 1.5 C0000244 <= 191.67
 R0000242: - C0000240 + C0000242 + 2 C0000243 + 1.5 C0000244 <= 91.67
 R0000243: + C0000235 - C0000241 <= 0
 R0000244: + 1.1 C0000234 - C0000245 <= 0
 R0000245: + C0000235 + C0000245 - C0000246 <= 0
 R0000246: - C0000236 - C0000242 + C0000247 <= 0
 R0000247: - C0000237 - C0000243 + C0000248 <= 0
 R0000248: - C0000238 - C0000244 + C0000249 <= 0
 R0000249: - C0000247 + C0000250 <= 0
 R0000250: - C0000248 + C0000251 <= 0
 R0000251: - C0000249 + C0000252 <= 0
 R0000252: - C0000250 + 2 C0000253 + C0000254 + 1.5 C0000255 <= 200
 R0000253: - C0000251 + C0000253 + 2 C0000254 + 1.5 C0000255 <= 100
 R0000254: + C0000246 - C0000252 <= 0
 R0000255: + 1.1 C0000003 - C0000256 = 0
 R0000256: + C0000004 + C0000256 - C0000257 = 0
 R0000257: - C0000005 - C0000011 + C0000258 = 0
 R0000258: - C0000006 - C0000012 + C0000259 = 0
 R0000259: - C0000007 - C0000013 + C0000260 = 0
 R0000260: - C0000258 + C0000261 <= 0
 R0000261: - C0000259 + C0000262 <= 0
 R0000262: - C0000260 + C0000263 <= 0
 R0000263: - C0000261 + 2 C0000264 + C0000265 + 1.5 C0000266 <= 191.67
 R0000264: - C0000262 + C0000264 + 2 C0000265 + 1.5 C0000266 <= 100
 R0000265: + C0000257 - C0000263 <= 0
 R0000266: + 1.1 C0000256 - C0000267 <= 0
 R0000267: + C0000257 + C0000267 - C0000268 <= 0
 R0000268: - C0000258 - C0000264 + C0000269 <= 0
 R0000269: - C0000259 - C0000265 + C0000270 <= 0
 R0000270: - C0000260 - C0000266 + C0000271 <= 0
 R0000271: - C0000269 + C0000272 <= 0
 R0000272: - C0000270 + C0000273 <= 0
 R0000273: - C0000271 + C0000274 <= 0
 R0000274: - C0000272 + 2 C0000275 + C0000276 + 1.5 C0000277 <= 200
 R0000275: - C0000273 + C0000275 + 2 C0000276 + 1.5 C0000277 <= 100
 R0000276: + C0000268 - C0000274 <= 0
 R0000277: + 1.1 C0000003 - C0000278 = 0
 R0000278: + C0000004 + C0000278 - C0000279 = 0
 R0000279: - C0000005 - C0000011 + C0000280 = 0
 R0000280: - C0000006 - C0000012 + C0000281 = 0
 R0000281: - C0000007 - C0000013 + C0000282 = 0
 R0000282: - C0000280 + C0000283 <= 0
 R0000283: - C0000281 + C0000284 <= 0
 R0000284: - C0000282 + C0000285 <= 0
 R0000285: - C0000283 + 2 C0000286 + C0000287 + 1.5 C0000288 <= 200
 R0000286: - C0000284 + C0000286 + 2 C0000287 + 1.5 C0000288 <= 75
 R0000287: + C0000279 - C0000285 <= 0
 R0000288: + 1.1 C0000278 - C0000289 <= 0
 R0000289: + C0000279 + C0000289 - C0000290 <= 0
 R0000290: - C0000280 - C0000286 + C0000291 <= 0
 R0000291: - C0000281 - C0000287 + C0000292 <= 0
 R0000292: - C0000282 - C0000288 + C0000293 <= 0
 R0000293: - C0000291 + C0000294 <= 0
 R0000294: - C0000292 + C0000295 <= 0
 R0000295: - C0000293 + C0000296 <= 0
 R0000296: - C0000294 + 2 C0000297 + C0000298 + 1.5 C0000299 <= 200
 R0000297: - C0000295 + C0000297 + 2 C0000298 + 1.5 C0000299 <= 100
 R0000298: + C0000290 - C0000296 <= 0
 R0000299: + 1.1 C0000003 - C0000300 = 0
 R0000300: + C0000004 + C0000300 - C0000301 = 0
 R0000301: - C0000005 - C0000011 + C0000302 = 0
 R0000302: - C0000006 - C0000012 + C0000303 = 0
 R0000303: - C0000007 - C0000013 + C0000304 = 0
 R0000304: - C0000302 + C0000305 <= 0
 R0000305: - C0000303 + C0000306 <= 0
 R0000306: - C0000304 + C0000307 <= 0
 R0000307: - C0000305 + 2 C0000308 + C0000309 + 1.5 C0000310 <= 200
 R0000308: - C0000306 + C0000308 + 2 C0000309 + 1.5 C0000310 <= 83.33
 R0000309: + C0000301 - C0000307 <= 0
 R0000310: + 1.1 C0000300 - C0000311 <= 0
 R0000311: + C0000301 + C0000311 - C0000312 <= 0
 R0000312: - C0000302 - C0000308 + C0000313 <= 0
 R0000313: - C0000303 - C0000309 + C0000314 <= 0
 R0000314: - C0000304 - C0000310 + C0000315 <= 0
 R0000315: - C0000313 + C0000316 <= 0
 R0000316: - C0000314 + C0000317 <= 0
 R0000317: - C0000315 + C0000318 <= 0
 R0000318: - C0000316 + 2 C0000319 + C0000320 + 1.5 C0000321 <= 200
 R0000319: - C0000317 + C0000319 + 2 C0000320 + 1.5 C0000321 <= 100
 R0000320: + C0000312 - C0000318 <= 0
 R0000321: + 1.1 C0000003 - C0000322 = 0
 R0000322: + C0000004 + C0000322 - C0000323 = 0
 R0000323: - C0000005 - C0000011 + C0000324 = 0
 R0000324: - C0000006 - C0000012 + C0000325 = 0
 R0000325: - C0000007 - C0000013 + C0000326 = 0
 R0000326: - C0000324 + C0000327 <= 0
 R0000327: - C0000325 + C0000328 <= 0
 R0000328: - C0000326 + C0000329 <= 0
 R0000329: - C0000327 + 2 C0000330 + C0000331 + 1.5 C0000332 <= 200
 R0000330: - C0000328 + C0000330 + 2 C0000331 + 1.5 C0000332 <= 91.67
 R0000331: + C0000323 - C0000329 <= 0
 R0000332: + 1.1 C0000322 - C0000333 <= 0
 R0000333: + C0000323 + C0000333 - C0000334 <= 0
 R0000334: - C0000324 - C0000330 + C0000335 <= 0
 R0000335: - C0000325 - C0000331 + C0000336 <= 0
 R0000336: - C0000326 - C0000332 + C0000337 <= 0
 R0000337: - C0000335 + C0000338 <= 0
 R0000338: - C0000336 + C0000339 <= 0
 R0000339: - C0000337 + C0000340 <= 0
 R0000340: - C0000338 + 2 C0000341 + C0000342 + 1.5 C0000343 <= 200
 R0000341: - C0000339 + C0000341 + 2 C0000342 + 1.5 C0000343 <= 100
 R0000342: + C0000334 - C0000340 <= 0
 R0000343: + 1.1 C0000003 - C0000344 = 0
 R0000344: + C0000004 + C0000344 - C0000345 = 0
 R0000345: - C0000005 - C0000011 + C0000346 = 0
 R0000346: - C0000006 - C0000012 + C0000347 = 0
 R0000347: - C0000007 - C0000013 + C0000348 = 0
 R0000348: - C0000346 + C0000349 <= 0
 R0000349: - C0000347 + C0000350 <= 0
 R0000350: - C0000348 + C0000351 <= 0
 R0000351: - C0000349 + 2 C0000352 + C0000353 + 1.5 C0000354 <= 200
 R0000352: - C0000350 + C0000352 + 2 C0000353 + 1.5 C0000354 <= 100
 R0000353: + C0000345 - C0000351 <= 0
 R0000354: + 1.1 C0000344 - C0000355 <= 0
 R0000355: + C0000345 + C0000355 - C0000356 <= 0
 R0000356: - C0000346 - C0000352 + C0000357 <= 0
 R0000357: - C0000347 - C0000353 + C0000358 <= 0
 R0000358: - C0000348 - C0000354 + C0000359 <= 0
 R0000359: - C0000357 + C0000360 <= 0
 R0000360: - C0000358 + C0000361 <= 0
 R0000361: - C0000359 + C0000362 <= 0
 R0000362: - C0000360 + 2 C0000363 + C0000364 + 1.5 C0000365 <= 200
 R0000363: - C0000361 + C0000363 + 2 C0000364 + 1.5 C0000365 <= 100
 R0000364: + C0000356 - C0000362 <= 0

End
